13663
71
5741
1718
79
5711
26276
2937
798
467
5215
5891
1340
5504
2911
17029
1452
360
1781
17326
436
17501
16035
26271
5434
10283
5866
6089
1645
2814
53
1500
17934
132
10711
5945
16797
3030
734
38741
432
3141
27919
3735
692
2857
2610
10162
10552
1669
3127
10631
49
38796
2714
161
5458
10377
441
184
18078
1627
16890
887
10968
2753
1270
9557
27
290
148
5326
9653
1342
5700
556
10144
17919
9856
1274
28446
10257
17063
9919
2581
2315
1603
243
0
5627
2935
609
162
5667
181
2836
11396
792
117
316
